sifdecoder -A pc64.lnx.gfo -st   A0NNSNSL

 Problem name: A0NNSNSL

 Double precision version will be formed

 The objective function uses 2 linear groups
 
 There are 20004 linear equality constraints
 
 There are 15004 free variables
 There are 10000 variables bounded only from below 
 There are 35008 fixed variables
 
 
 File successfully decoded
 CUTEST: tools (double precision version) compiled successfully
 CUTEst: ipopt (double precision version) compiled successfully

******************************************************************************
This program contains Ipopt, a library for large-scale nonlinear optimization.
 Ipopt is released as open source code under the Eclipse Public License (EPL).
         For more information visit http://projects.coin-or.org/Ipopt
******************************************************************************

This is Ipopt version trunk, running with linear solver ma57.

Number of nonzeros in equality constraint Jacobian...:    76091
Number of nonzeros in inequality constraint Jacobian.:        0
Number of nonzeros in Lagrangian Hessian.............:    30004

Total number of variables............................:    25004
                     variables with only lower bounds:    10000
                variables with lower and upper bounds:        0
                     variables with only upper bounds:        0
Total number of equality constraints.................:    20004
Total number of inequality constraints...............:        0
        inequality constraints with only lower bounds:        0
   inequality constraints with lower and upper bounds:        0
        inequality constraints with only upper bounds:        0

iter    objective    inf_pr   inf_du lg(mu)  ||d||  lg(rg) alpha_du alpha_pr  ls
   0  4.9999900e-01 9.92e+01 6.37e-01  -1.0 0.00e+00    -  0.00e+00 0.00e+00   0
   1  5.5941551e-01 9.90e+01 1.11e+00  -1.0 1.99e+02  -4.0 9.92e-04 2.02e-03h  1
   2  6.8007026e-01 9.89e+01 1.11e+00  -1.0 2.14e+02  -4.5 1.69e-03 1.61e-03f  1
   3  8.4712219e-01 9.87e+01 1.10e+00  -1.0 1.72e+02  -5.0 1.84e-03 1.76e-03f  1
   4  1.0655483e+00 9.85e+01 1.10e+00  -1.0 1.32e+02  -5.4 1.95e-03 2.11e-03f  1
   5  1.3640283e+00 9.82e+01 1.10e+00  -1.0 1.29e+02  -5.9 2.18e-03 2.70e-03f  1
   6  1.7149355e+00 9.79e+01 1.14e+00  -1.0 1.00e+02  -6.4 2.62e-03 3.01e-03f  1
   7  2.1735849e+00 9.76e+01 1.14e+00  -1.0 1.14e+02  -6.9 3.69e-03 3.72e-03f  1
   8  2.9442014e+00 9.70e+01 1.14e+00  -1.0 6.76e+01  -7.3 4.84e-03 5.83e-03f  1
   9  4.2755478e+00 9.61e+01 1.14e+00  -1.0 9.55e+01  -7.8 8.46e-03 9.20e-03f  1
iter    objective    inf_pr   inf_du lg(mu)  ||d||  lg(rg) alpha_du alpha_pr  ls
  10  6.3055455e+00 9.49e+01 1.14e+00  -1.0 1.30e+02  -8.3 1.10e-02 1.26e-02f  1
  11  8.8037286e+00 9.36e+01 1.11e+00  -1.0 1.58e+02  -8.8 1.81e-02 1.41e-02f  1
  12  1.6924764e+01 8.99e+01 4.61e+00  -1.0 1.66e+02  -9.2 1.44e-02 3.95e-02f  1
  13  4.4416337e+01 8.05e+01 5.14e+00  -1.0 1.53e+02  -9.7 6.40e-02 1.05e-01f  1
  14  1.3528395e+02 5.68e+01 2.66e+00  -1.0 1.25e+02 -10.2 2.18e-01 2.94e-01f  1
  15  3.2228513e+02 1.67e+01 3.50e+00  -1.0 8.90e+01 -10.7 5.50e-01 7.06e-01f  1
  16  3.4472341e+02 1.13e+01 2.04e+01  -1.0 9.23e+00 -11.2 6.83e-01 3.22e-01f  1
  17  3.7481954e+02 4.85e+00 2.45e+00  -1.0 4.55e+00 -11.6 4.62e-01 5.71e-01f  1
  18  3.8506793e+02 2.62e+00 3.02e+01  -1.0 6.23e+01 -12.1 5.18e-01 4.60e-01h  1
  19  3.8724648e+02 1.74e+00 4.81e+01  -1.0 1.49e+02 -12.6 3.91e-01 3.35e-01f  1
iter    objective    inf_pr   inf_du lg(mu)  ||d||  lg(rg) alpha_du alpha_pr  ls
  20  3.8813915e+02 1.55e+00 3.80e+01  -1.0 1.50e+02  -4.7 1.01e-01 1.10e-01h  1
  21  3.8930869e+02 1.35e+00 4.98e+01  -1.0 1.41e+02  -5.2 1.60e-01 1.32e-01f  1
  22  3.9344740e+02 6.19e-01 2.07e+01  -1.0 7.02e+01  -3.9 5.37e-01 5.40e-01h  1
  23  3.9931911e+02 7.90e-06 1.14e+02  -1.0 1.64e+01  -4.4 9.18e-01 1.00e+00h  1
  24  3.9951732e+02 1.56e-05 1.95e-03  -1.0 1.71e+01  -3.9 1.00e+00 1.00e+00f  1
  25  1.5531893e+01 1.35e-07 6.44e-05  -2.5 1.69e+00  -4.4 1.00e+00 1.00e+00f  1
  26  8.0359503e-01 1.11e-08 1.81e-05  -3.8 1.43e+00  -4.9 1.00e+00 1.00e+00f  1
Reallocating memory for MA57: lfact (1268638)
  27  3.4309794e-02 5.03e-09 1.02e-04  -5.7 4.49e-01  -5.4 9.95e-01 9.95e-01f  1
Reallocating memory for MA57: lfact (6408447)
  28  1.0220722e-02 5.15e-09 8.74e-03  -5.7 2.74e-01  -5.9 9.94e-01 9.95e-01f  1
  29  7.2929016e-03 5.15e-09 3.13e-03  -5.7 4.72e-01  -6.3 9.81e-01 9.82e-01f  1
iter    objective    inf_pr   inf_du lg(mu)  ||d||  lg(rg) alpha_du alpha_pr  ls
  30  6.9299538e-03 5.15e-09 1.92e-03  -5.7 8.50e-01  -6.8 7.39e-01 7.39e-01f  1
  31  6.8310516e-03 5.14e-09 3.35e-08  -5.7 6.41e-01  -7.3 1.00e+00 1.00e+00f  1
Reallocating memory for MA57: lfact (6735621)
  32  5.7674025e-05 5.33e-09 4.28e-02  -8.6 3.23e-01  -7.8 9.20e-01 9.20e-01f  1
Reallocating memory for MA57: lfact (7101710)
  33 -4.4685919e-04 5.35e-09 1.04e-02  -8.6 9.94e-01  -8.2 8.51e-01 8.51e-01f  1
  34 -5.3911557e-04 5.35e-09 5.39e-03  -8.6 3.00e+00  -8.7 8.57e-01 8.57e-01f  1
  35 -5.9548517e-04 5.35e-09 4.14e-03  -8.6 9.00e+00  -9.2 7.72e-01 7.73e-01f  1
WARNING: Problem in step computation; switching to emergency mode.
  36r-5.9548517e-04 5.35e-09 1.00e+03  -8.3 0.00e+00    -  0.00e+00 0.00e+00R  1
  37r-5.9517849e-04 9.96e-09 9.85e+02  -8.3 2.05e-03    -  1.64e-02 1.42e-02f  1
Reallocating memory for MA57: lfact (29405230)
  38 -5.8700632e-04 9.74e-09 2.01e+02  -8.6 8.21e-06  -9.7 1.06e-04 2.19e-02f  5
  39 -5.5606996e-04 8.90e-09 1.93e+02  -8.6 5.38e-06 -10.1 1.00e+00 8.57e-02h  1
iter    objective    inf_pr   inf_du lg(mu)  ||d||  lg(rg) alpha_du alpha_pr  ls
  40 -5.5605427e-04 8.90e-09 1.85e+02  -8.6 1.72e+00 -10.6 5.44e-02 3.05e-05f 16
  41 -1.2825313e-04 3.91e-09 1.17e+02  -8.6 4.67e+00 -11.1 3.21e-02 5.09e-01h  1
  42 -1.4836915e-04 3.76e-09 1.82e+02  -8.6 1.55e+00 -11.6 1.56e-02 2.17e-01f  1
  43 -1.5618650e-04 3.35e-09 2.25e+02  -8.6 1.44e+00 -12.1 4.25e-01 1.07e-01f  1
  44 -1.5617108e-04 3.35e-09 1.83e+02  -8.6 6.69e+00 -12.5 3.14e-01 6.01e-05f 10
  45 -1.1553139e-04 5.65e-09 1.54e+02  -8.6 9.40e+00 -13.0 1.60e-01 1.60e-01s 20
  46 -5.8987143e-05 5.78e-09 9.38e+01  -8.6 9.56e+00 -13.5 3.91e-01 3.91e-01s 20
  47 -6.8101634e-05 3.62e-09 1.22e+01  -8.6 4.53e-03  -5.6 8.70e-01 8.70e-01s 20
  48 -8.7617871e-05 3.17e-09 1.07e+01  -8.6 7.06e-03  -6.1 1.23e-01 1.23e-01s 20
  49 -1.2360803e-04 2.35e-09 7.92e+00  -8.6 2.08e-02  -6.6 2.59e-01 2.59e-01s 20
iter    objective    inf_pr   inf_du lg(mu)  ||d||  lg(rg) alpha_du alpha_pr  ls
  50 -2.2680546e-04 4.28e-13 3.60e+01  -8.6 6.23e-02  -7.1 1.00e+00 0.00e+00S 20
  51 -2.2715101e-04 2.36e-12 9.21e+00  -8.6 1.87e-01  -7.5 7.44e-01 7.44e-01h  1
  52 -2.2715109e-04 1.80e-12 9.21e+00  -8.6 4.01e+00  -8.0 1.18e-04 5.96e-05f  2
  53 -2.2713553e-04 2.09e-12 7.37e+00  -8.6 4.47e+00  -4.0 2.01e-01 3.15e-03f  7
  54 -2.2715124e-04 8.29e-13 2.09e+00  -8.6 8.12e-03  -4.5 1.00e+00 6.89e-01h  1
  55 -2.2714933e-04 3.38e-13 1.67e-08  -8.6 1.46e-03  -4.9 1.00e+00 1.00e+00f  1
  56 -2.3352412e-04 5.25e-13 5.26e-09  -9.0 1.38e-03  -5.4 1.00e+00 1.00e+00h  1

Number of Iterations....: 56

                                   (scaled)                 (unscaled)
Objective...............:  -2.3352412100698667e-04   -2.3352412100698667e-04
Dual infeasibility......:   5.2645148687605600e-09    5.2645148687605600e-09
Constraint violation....:   5.2521893170947747e-13    5.2521893170947747e-13
Complementarity.........:   1.0904731014206327e-09    1.0904731014206327e-09
Overall NLP error.......:   5.2645148687605600e-09    5.2645148687605600e-09


Number of objective function evaluations             = 118
Number of objective gradient evaluations             = 56
Number of equality constraint evaluations            = 118
Number of inequality constraint evaluations          = 0
Number of equality constraint Jacobian evaluations   = 57
Number of inequality constraint Jacobian evaluations = 0
Number of Lagrangian Hessian evaluations             = 56
Total CPU secs in IPOPT (w/o function evaluations)   =     65.429
Total CPU secs in NLP function evaluations           =      3.472

EXIT: Optimal Solution Found.

************************ CUTEst statistics ************************


 Package used            :  IPOPT
 Problem                 :  A0NNSNSL  
 # variables             =           60012
 # constraints           =           20004
 # objective functions   =        0.1750000E+03
 # objective gradients   =        0.5700000E+02
 # objective Hessians    =        0.5600000E+02
 # Hessian-vector prdct  =        0.0000000E+00
 # constraints functions =        0.1770000E+03
 # constraints gradients =        0.5900000E+02
 # constraints Hessians  =        0.5600000E+02
 Exit code               =               0
 Final f                 =       -2.3352412100698667D-04
 Bounds feasibility      =        9.9996979310568401D-09
 Set up time             =            0.77 seconds
 Solve time              =          130.71 seconds


******************************************************************

